(set-info :source |printed by MathSAT|)
(declare-fun P1 () Int)
(declare-fun .x.132 () Int)
(declare-fun B () Int)
(declare-fun .x.133 () Int)
(declare-fun Q1 () Int)
(declare-fun .x.134 () Int)
(declare-fun D () Int)
(declare-fun .x.135 () Int)
(declare-fun R1 () Int)
(declare-fun .x.136 () Int)
(declare-fun F () Int)
(declare-fun .x.137 () Int)
(declare-fun S1 () Int)
(declare-fun .x.138 () Int)
(declare-fun H () Int)
(declare-fun .x.139 () Int)
(declare-fun T1 () Int)
(declare-fun .x.140 () Int)
(declare-fun J () Int)
(declare-fun .x.141 () Int)
(declare-fun U1 () Int)
(declare-fun .x.142 () Int)
(declare-fun L () Int)
(declare-fun .x.143 () Int)
(declare-fun V1 () Int)
(declare-fun .x.144 () Int)
(declare-fun N () Int)
(declare-fun .x.145 () Int)
(declare-fun O () Int)
(declare-fun .x.146 () Int)
(declare-fun W1 () Int)
(declare-fun .x.147 () Int)
(declare-fun Q () Int)
(declare-fun .x.148 () Int)
(declare-fun X1 () Int)
(declare-fun .x.149 () Int)
(declare-fun S () Int)
(declare-fun .x.150 () Int)
(declare-fun Y1 () (Array Int Int))
(declare-fun .x.151 () (Array Int Int))
(declare-fun U () (Array Int Int))
(declare-fun .x.152 () (Array Int Int))
(declare-fun V () (Array Int (Array Int Int)))
(declare-fun .x.153 () (Array Int (Array Int Int)))
(declare-fun W () (Array Int (Array Int Int)))
(declare-fun .x.154 () (Array Int (Array Int Int)))
(declare-fun Z1 () Int)
(declare-fun .x.155 () Int)
(declare-fun Y () Int)
(declare-fun .x.156 () Int)
(declare-fun A2 () (Array Int Int))
(declare-fun .x.157 () (Array Int Int))
(declare-fun A1 () (Array Int Int))
(declare-fun .x.158 () (Array Int Int))
(declare-fun B1 () Int)
(declare-fun .x.159 () Int)
(declare-fun C1 () Int)
(declare-fun .x.160 () Int)
(declare-fun D1 () Int)
(declare-fun .x.161 () Int)
(declare-fun E1 () Int)
(declare-fun .x.162 () Int)
(declare-fun F1 () Int)
(declare-fun .x.163 () Int)
(declare-fun G1 () Int)
(declare-fun .x.164 () Int)
(declare-fun H1 () Int)
(declare-fun .x.165 () Int)
(declare-fun I1 () Int)
(declare-fun .x.166 () Int)
(declare-fun J1 () Int)
(declare-fun .x.167 () Int)
(declare-fun K1 () Int)
(declare-fun .x.168 () Int)
(declare-fun L1 () Int)
(declare-fun .x.169 () Int)
(declare-fun M1 () Int)
(declare-fun .x.170 () Int)
(declare-fun N1 () Int)
(declare-fun .x.171 () Int)
(declare-fun O1 () Bool)
(declare-fun O1_3 () Bool)
(declare-fun .loc.3 () Bool)
(declare-fun .loc.5 () Bool)
(declare-fun .loc.4 () Bool)
(declare-fun .loc.6 () Bool)
(declare-fun P1_0 () Int)
(declare-fun Q1_0 () Int)
(declare-fun R1_0 () Int)
(declare-fun S1_0 () Int)
(declare-fun Q1_1 () Int)
(declare-fun P1_1 () Int)
(define-fun .def_8 () Int (! P1 :next |.x.132|))
(define-fun .def_10 () Int (! B :next |.x.133|))
(define-fun .def_12 () Int (! Q1 :next |.x.134|))
(define-fun .def_14 () Int (! D :next |.x.135|))
(define-fun .def_16 () Int (! R1 :next |.x.136|))
(define-fun .def_18 () Int (! F :next |.x.137|))
(define-fun .def_20 () Int (! S1 :next |.x.138|))
(define-fun .def_22 () Int (! H :next |.x.139|))
(define-fun .def_24 () Int (! T1 :next |.x.140|))
(define-fun .def_26 () Int (! J :next |.x.141|))
(define-fun .def_28 () Int (! U1 :next |.x.142|))
(define-fun .def_30 () Int (! L :next |.x.143|))
(define-fun .def_32 () Int (! V1 :next |.x.144|))
(define-fun .def_34 () Int (! N :next |.x.145|))
(define-fun .def_36 () Int (! O :next |.x.146|))
(define-fun .def_38 () Int (! W1 :next |.x.147|))
(define-fun .def_40 () Int (! Q :next |.x.148|))
(define-fun .def_42 () Int (! X1 :next |.x.149|))
(define-fun .def_44 () Int (! S :next |.x.150|))
(define-fun .def_46 () (Array Int Int) (! Y1 :next |.x.151|))
(define-fun .def_48 () (Array Int Int) (! U :next |.x.152|))
(define-fun .def_50 () (Array Int (Array Int Int)) (! V :next |.x.153|))
(define-fun .def_52 () (Array Int (Array Int Int)) (! W :next |.x.154|))
(define-fun .def_54 () Int (! Z1 :next |.x.155|))
(define-fun .def_56 () Int (! Y :next |.x.156|))
(define-fun .def_58 () (Array Int Int) (! A2 :next |.x.157|))
(define-fun .def_60 () (Array Int Int) (! A1 :next |.x.158|))
(define-fun .def_62 () Int (! B1 :next |.x.159|))
(define-fun .def_64 () Int (! C1 :next |.x.160|))
(define-fun .def_66 () Int (! D1 :next |.x.161|))
(define-fun .def_68 () Int (! E1 :next |.x.162|))
(define-fun .def_70 () Int (! F1 :next |.x.163|))
(define-fun .def_72 () Int (! G1 :next |.x.164|))
(define-fun .def_74 () Int (! H1 :next |.x.165|))
(define-fun .def_76 () Int (! I1 :next |.x.166|))
(define-fun .def_78 () Int (! J1 :next |.x.167|))
(define-fun .def_80 () Int (! K1 :next |.x.168|))
(define-fun .def_82 () Int (! L1 :next |.x.169|))
(define-fun .def_84 () Int (! M1 :next |.x.170|))
(define-fun .def_86 () Int (! N1 :next |.x.171|))
(define-fun .def_88 () Bool (! O1 :next |O1_3|))
(define-fun .def_90 () Bool (! .loc.3 :next |.loc.5|))
(define-fun .def_92 () Bool (! .loc.4 :next |.loc.6|))
(define-fun .def_114 () Int (! P1_0 :next |.xtv.1|))
(define-fun .def_117 () Int (! Q1_0 :next |.xtv.2|))
(define-fun .def_124 () Int (! R1_0 :next |.xtv.3|))
(define-fun .def_129 () Int (! S1_0 :next |.xtv.4|))
(define-fun .def_168 () Int (! Q1_1 :next |.xtv.5|))
(define-fun .def_169 () Int (! P1_1 :next |.xtv.6|))
(define-fun .def_314 () Bool (not .def_92))
(define-fun .def_157 () Bool (not .def_90))
(define-fun .def_344 () Bool (and .def_157 .def_314))
(define-fun .def_330 () Bool (= .def_50 .def_52))
(define-fun .def_329 () Bool (not .def_88))
(define-fun .def_331 () Bool (and .def_329 .def_330))
(define-fun .def_328 () Bool (= .def_20 .def_22))
(define-fun .def_332 () Bool (and .def_328 .def_331))
(define-fun .def_327 () Bool (= .def_24 .def_26))
(define-fun .def_333 () Bool (and .def_327 .def_332))
(define-fun .def_326 () Bool (= .def_38 .def_40))
(define-fun .def_334 () Bool (and .def_326 .def_333))
(define-fun .def_325 () Bool (= .def_54 .def_56))
(define-fun .def_335 () Bool (and .def_325 .def_334))
(define-fun .def_324 () Bool (= .def_42 .def_44))
(define-fun .def_336 () Bool (and .def_324 .def_335))
(define-fun .def_323 () Bool (= .def_32 .def_34))
(define-fun .def_337 () Bool (and .def_323 .def_336))
(define-fun .def_322 () Bool (= .def_28 .def_30))
(define-fun .def_338 () Bool (and .def_322 .def_337))
(define-fun .def_321 () Bool (= .def_16 .def_18))
(define-fun .def_339 () Bool (and .def_321 .def_338))
(define-fun .def_320 () Bool (= .def_12 .def_14))
(define-fun .def_340 () Bool (and .def_320 .def_339))
(define-fun .def_319 () Bool (= .def_8 .def_10))
(define-fun .def_341 () Bool (and .def_319 .def_340))
(define-fun .def_318 () Bool (= .def_58 .def_60))
(define-fun .def_342 () Bool (and .def_318 .def_341))
(define-fun .def_317 () Bool (= .def_46 .def_48))
(define-fun .def_343 () Bool (and .def_317 .def_342))
(define-fun .def_345 () Bool (! (and .def_343 .def_344) :init true))
(define-fun .def_312 () Bool (= .def_10 .x.133))
(define-fun .def_310 () Bool (= .def_14 .x.135))
(define-fun .def_308 () Bool (= .def_18 .x.137))
(define-fun .def_306 () Bool (= .def_22 .x.139))
(define-fun .def_304 () Bool (= .def_26 .x.141))
(define-fun .def_302 () Bool (= .def_30 .x.143))
(define-fun .def_300 () Bool (= .def_34 .x.145))
(define-fun .def_298 () Bool (= .def_36 .x.146))
(define-fun .def_296 () Bool (= .def_40 .x.148))
(define-fun .def_294 () Bool (= .def_44 .x.150))
(define-fun .def_292 () Bool (= .def_48 .x.152))
(define-fun .def_290 () Bool (= .def_52 .x.154))
(define-fun .def_288 () Bool (= .def_60 .x.158))
(define-fun .def_287 () Bool (= .def_56 .x.156))
(define-fun .def_289 () Bool (and .def_287 .def_288))
(define-fun .def_291 () Bool (and .def_289 .def_290))
(define-fun .def_293 () Bool (and .def_291 .def_292))
(define-fun .def_295 () Bool (and .def_293 .def_294))
(define-fun .def_297 () Bool (and .def_295 .def_296))
(define-fun .def_299 () Bool (and .def_297 .def_298))
(define-fun .def_301 () Bool (and .def_299 .def_300))
(define-fun .def_303 () Bool (and .def_301 .def_302))
(define-fun .def_305 () Bool (and .def_303 .def_304))
(define-fun .def_307 () Bool (and .def_305 .def_306))
(define-fun .def_309 () Bool (and .def_307 .def_308))
(define-fun .def_311 () Bool (and .def_309 .def_310))
(define-fun .def_313 () Bool (and .def_311 .def_312))
(define-fun .def_315 () Bool (and .def_313 .def_314))
(define-fun .def_282 () Bool (not .loc.5))
(define-fun .def_283 () Bool (and .loc.6 .def_282))
(define-fun .def_170 () Bool (= .def_168 .def_169))
(define-fun .def_277 () Bool (not .def_170))
(define-fun .def_278 () Bool (or .def_88 .def_277))
(define-fun .def_139 () (Array Int Int) (select .def_50 .x.136))
(define-fun .def_204 () (Array Int Int) (store .def_139 .x.155 0))
(define-fun .def_205 () (Array Int (Array Int Int)) (store .def_50 .x.136 .def_204))
(define-fun .def_206 () (Array Int Int) (select .def_205 .x.140))
(define-fun .def_207 () (Array Int Int) (store .def_206 .x.149 1))
(define-fun .def_208 () (Array Int (Array Int Int)) (store .def_205 .x.140 .def_207))
(define-fun .def_209 () (Array Int Int) (select .def_208 .x.144))
(define-fun .def_210 () Int (select .def_209 .x.134))
(define-fun .def_211 () (Array Int Int) (select .def_208 .x.147))
(define-fun .def_212 () (Array Int Int) (store .def_211 .x.132 .def_210))
(define-fun .def_213 () (Array Int (Array Int Int)) (store .def_208 .x.147 .def_212))
(define-fun .def_214 () Bool (= .x.153 .def_213))
(define-fun .def_200 () (Array Int Int) (select .x.153 .x.160))
(define-fun .def_201 () Int (select .def_200 .x.161))
(define-fun .def_202 () Bool (= .def_168 .def_201))
(define-fun .def_196 () (Array Int Int) (select .x.153 .x.167))
(define-fun .def_197 () Int (select .def_196 .x.163))
(define-fun .def_198 () Bool (= .def_169 .def_197))
(define-fun .def_194 () Bool (= .x.134 .x.149))
(define-fun .def_192 () Bool (= .x.140 .x.171))
(define-fun .def_190 () Bool (= .x.136 .x.170))
(define-fun .def_188 () Bool (= .x.160 .x.170))
(define-fun .def_186 () Bool (= .x.163 .x.164))
(define-fun .def_184 () Bool (= .x.167 .x.171))
(define-fun .def_182 () Bool (= .x.149 .x.164))
(define-fun .def_180 () Bool (= .x.159 .x.161))
(define-fun .def_178 () Bool (= .x.155 .x.159))
(define-fun .def_176 () Bool (= .x.136 .x.147))
(define-fun .def_174 () Bool (= .x.132 .x.155))
(define-fun .def_173 () Bool (= .x.140 .x.144))
(define-fun .def_175 () Bool (and .def_173 .def_174))
(define-fun .def_177 () Bool (and .def_175 .def_176))
(define-fun .def_179 () Bool (and .def_177 .def_178))
(define-fun .def_181 () Bool (and .def_179 .def_180))
(define-fun .def_183 () Bool (and .def_181 .def_182))
(define-fun .def_185 () Bool (and .def_183 .def_184))
(define-fun .def_187 () Bool (and .def_185 .def_186))
(define-fun .def_189 () Bool (and .def_187 .def_188))
(define-fun .def_191 () Bool (and .def_189 .def_190))
(define-fun .def_193 () Bool (and .def_191 .def_192))
(define-fun .def_195 () Bool (and .def_193 .def_194))
(define-fun .def_199 () Bool (and .def_195 .def_198))
(define-fun .def_203 () Bool (and .def_199 .def_202))
(define-fun .def_215 () Bool (and .def_203 .def_214))
(define-fun .def_275 () Bool (or .def_88 .def_215))
(define-fun .def_95 () Bool (= .def_68 .x.162))
(define-fun .def_273 () Bool (and O1_3 .def_95))
(define-fun .def_134 () (Array Int Int) (store .def_46 0 0))
(define-fun .def_135 () (Array Int Int) (store .def_134 .x.136 1))
(define-fun .def_152 () (Array Int Int) (store .def_135 .x.140 1))
(define-fun .def_153 () Bool (= .x.151 .def_152))
(define-fun .def_148 () (Array Int Int) (store .def_58 .x.136 4))
(define-fun .def_149 () (Array Int Int) (store .def_148 .x.140 4))
(define-fun .def_150 () Bool (= .x.157 .def_149))
(define-fun .def_143 () (Array Int Int) (select .def_50 .x.140))
(define-fun .def_144 () Int (select .def_143 .x.149))
(define-fun .def_145 () Bool (= .def_144 0))
(define-fun .def_140 () Int (select .def_139 .x.155))
(define-fun .def_141 () Bool (= .def_140 0))
(define-fun .def_136 () Int (select .def_135 .x.140))
(define-fun .def_137 () Bool (= .def_136 0))
(define-fun .def_130 () Bool (= .def_129 0))
(define-fun .def_125 () Bool (= .def_124 0))
(define-fun .def_118 () Bool (= .def_117 0))
(define-fun .def_115 () Bool (= .def_114 0))
(define-fun .def_111 () Bool (<= .def_36 .x.140))
(define-fun .def_112 () Bool (not .def_111))
(define-fun .def_109 () Bool (<= .def_36 .x.136))
(define-fun .def_110 () Bool (not .def_109))
(define-fun .def_113 () Bool (and .def_110 .def_112))
(define-fun .def_116 () Bool (and .def_113 .def_115))
(define-fun .def_119 () Bool (and .def_116 .def_118))
(define-fun .def_99 () Bool (= .x.136 0))
(define-fun .def_108 () Bool (not .def_99))
(define-fun .def_120 () Bool (and .def_108 .def_119))
(define-fun .def_107 () Bool (= .x.138 0))
(define-fun .def_121 () Bool (and .def_107 .def_120))
(define-fun .def_105 () Bool (= .x.140 0))
(define-fun .def_106 () Bool (not .def_105))
(define-fun .def_122 () Bool (and .def_106 .def_121))
(define-fun .def_104 () Bool (= .x.142 0))
(define-fun .def_123 () Bool (and .def_104 .def_122))
(define-fun .def_126 () Bool (and .def_123 .def_125))
(define-fun .def_103 () Bool (= .x.155 0))
(define-fun .def_127 () Bool (and .def_103 .def_126))
(define-fun .def_102 () Bool (= .x.149 0))
(define-fun .def_128 () Bool (and .def_102 .def_127))
(define-fun .def_131 () Bool (and .def_128 .def_130))
(define-fun .def_98 () Int (select .def_46 .x.136))
(define-fun .def_100 () Int (ite .def_99 0 .def_98))
(define-fun .def_101 () Bool (= .def_100 0))
(define-fun .def_132 () Bool (and .def_101 .def_131))
(define-fun .def_138 () Bool (and .def_132 .def_137))
(define-fun .def_142 () Bool (and .def_138 .def_141))
(define-fun .def_146 () Bool (and .def_142 .def_145))
(define-fun .def_151 () Bool (and .def_146 .def_150))
(define-fun .def_154 () Bool (and .def_151 .def_153))
(define-fun .def_155 () Bool (or .def_88 .def_154))
(define-fun .def_274 () Bool (and .def_155 .def_273))
(define-fun .def_276 () Bool (and .def_274 .def_275))
(define-fun .def_279 () Bool (and .def_276 .def_278))
(define-fun .def_280 () Bool (and .def_157 .def_279))
(define-fun .def_270 () Bool (= .x.168 0))
(define-fun .def_271 () Bool (or .def_88 .def_270))
(define-fun .def_268 () Bool (= .def_8 .x.132))
(define-fun .def_266 () Bool (= .def_12 .x.134))
(define-fun .def_264 () Bool (= .def_16 .x.136))
(define-fun .def_262 () Bool (= .def_20 .x.138))
(define-fun .def_260 () Bool (= .def_24 .x.140))
(define-fun .def_258 () Bool (= .def_28 .x.142))
(define-fun .def_256 () Bool (= .def_32 .x.144))
(define-fun .def_254 () Bool (= .def_38 .x.147))
(define-fun .def_252 () Bool (= .def_42 .x.149))
(define-fun .def_250 () Bool (= .def_46 .x.151))
(define-fun .def_248 () Bool (= .def_50 .x.153))
(define-fun .def_246 () Bool (= .def_54 .x.155))
(define-fun .def_244 () Bool (= .def_58 .x.157))
(define-fun .def_242 () Bool (= .def_62 .x.159))
(define-fun .def_240 () Bool (= .def_64 .x.160))
(define-fun .def_238 () Bool (= .def_66 .x.161))
(define-fun .def_236 () Bool (= .def_70 .x.163))
(define-fun .def_234 () Bool (= .def_72 .x.164))
(define-fun .def_232 () Bool (= .def_74 .x.165))
(define-fun .def_230 () Bool (= .def_76 .x.166))
(define-fun .def_228 () Bool (= .def_78 .x.167))
(define-fun .def_226 () Bool (= .def_82 .x.169))
(define-fun .def_224 () Bool (= .def_84 .x.170))
(define-fun .def_222 () Bool (= .def_86 .x.171))
(define-fun .def_218 () Bool (= .x.162 .x.168))
(define-fun .def_219 () Bool (or O1_3 .def_218))
(define-fun .def_220 () Bool (and .def_90 .def_219))
(define-fun .def_165 () Bool (= .def_88 O1_3))
(define-fun .def_221 () Bool (and .def_165 .def_220))
(define-fun .def_223 () Bool (and .def_221 .def_222))
(define-fun .def_225 () Bool (and .def_223 .def_224))
(define-fun .def_227 () Bool (and .def_225 .def_226))
(define-fun .def_229 () Bool (and .def_227 .def_228))
(define-fun .def_231 () Bool (and .def_229 .def_230))
(define-fun .def_233 () Bool (and .def_231 .def_232))
(define-fun .def_235 () Bool (and .def_233 .def_234))
(define-fun .def_237 () Bool (and .def_235 .def_236))
(define-fun .def_239 () Bool (and .def_237 .def_238))
(define-fun .def_241 () Bool (and .def_239 .def_240))
(define-fun .def_243 () Bool (and .def_241 .def_242))
(define-fun .def_245 () Bool (and .def_243 .def_244))
(define-fun .def_247 () Bool (and .def_245 .def_246))
(define-fun .def_249 () Bool (and .def_247 .def_248))
(define-fun .def_251 () Bool (and .def_249 .def_250))
(define-fun .def_253 () Bool (and .def_251 .def_252))
(define-fun .def_255 () Bool (and .def_253 .def_254))
(define-fun .def_257 () Bool (and .def_255 .def_256))
(define-fun .def_259 () Bool (and .def_257 .def_258))
(define-fun .def_261 () Bool (and .def_259 .def_260))
(define-fun .def_263 () Bool (and .def_261 .def_262))
(define-fun .def_265 () Bool (and .def_263 .def_264))
(define-fun .def_267 () Bool (and .def_265 .def_266))
(define-fun .def_269 () Bool (and .def_267 .def_268))
(define-fun .def_272 () Bool (and .def_269 .def_271))
(define-fun .def_281 () Bool (or .def_272 .def_280))
(define-fun .def_284 () Bool (and .def_281 .def_283))
(define-fun .def_216 () Bool (or O1_3 .def_215))
(define-fun .def_171 () Bool (or O1_3 .def_170))
(define-fun .def_162 () Bool (and .def_95 .def_155))
(define-fun .def_163 () Bool (and .def_157 .def_162))
(define-fun .def_164 () Bool (and .loc.5 .def_163))
(define-fun .def_166 () Bool (and .def_164 .def_165))
(define-fun .def_160 () Bool (not .loc.6))
(define-fun .def_167 () Bool (and .def_160 .def_166))
(define-fun .def_172 () Bool (and .def_167 .def_171))
(define-fun .def_217 () Bool (and .def_172 .def_216))
(define-fun .def_285 () Bool (or .def_217 .def_284))
(define-fun .def_94 () Bool (and .def_88 O1_3))
(define-fun .def_96 () Bool (and .def_94 .def_95))
(define-fun .def_156 () Bool (and .def_96 .def_155))
(define-fun .def_158 () Bool (and .def_156 .def_157))
(define-fun .def_159 () Bool (and .loc.5 .def_158))
(define-fun .def_161 () Bool (and .def_159 .def_160))
(define-fun .def_286 () Bool (or .def_161 .def_285))
(define-fun .def_316 () Bool (! (and .def_286 .def_315) :trans true))
(define-fun .def_346 () Bool (and .def_92 .def_157))
(define-fun .def_347 () Bool (and .def_88 .def_346))
(define-fun .def_348 () Bool (! (not .def_347) :invar-property 0))
(assert true)
